unsat
(forall ((A (_ BitVec 1))
         (B (_ BitVec 1))
         (C (_ BitVec 4))
         (D (_ BitVec 23))
         (E (_ BitVec 1))
         (F (_ BitVec 1))
         (G (_ BitVec 4))
         (H (_ BitVec 1))
         (I (_ BitVec 4))
         (J (_ BitVec 1))
         (K (_ BitVec 32))
         (L (_ BitVec 1))
         (M (_ BitVec 1))
         (N (_ BitVec 1))
         (O (_ BitVec 1))
         (P (_ BitVec 5))
         (Q (_ BitVec 1))
         (R (_ BitVec 1))
         (S (_ BitVec 5))
         (T (_ BitVec 1))
         (U (_ BitVec 1))
         (V (_ BitVec 1))
         (W (_ BitVec 1))
         (X (_ BitVec 1))
         (Y (_ BitVec 1))
         (Z (_ BitVec 5))
         (A1 (_ BitVec 64))
         (B1 (_ BitVec 32))
         (C1 (_ BitVec 1))
         (D1 (_ BitVec 1))
         (E1 (_ BitVec 1))
         (F1 (_ BitVec 4))
         (G1 (_ BitVec 32))
         (H1 (_ BitVec 1))
         (I1 (_ BitVec 1))
         (J1 (_ BitVec 32))
         (K1 (_ BitVec 30))
         (L1 (_ BitVec 30))
         (M1 (_ BitVec 1))
         (N1 (_ BitVec 32))
         (O1 (_ BitVec 32))
         (P1 (_ BitVec 1))
         (Q1 (_ BitVec 1))
         (R1 (_ BitVec 1))
         (S1 (_ BitVec 1))
         (T1 (_ BitVec 15))
         (U1 (_ BitVec 32))
         (V1 (_ BitVec 5))
         (W1 (_ BitVec 1))
         (X1 (_ BitVec 7))
         (Y1 (_ BitVec 1))
         (Z1 (_ BitVec 1))
         (A2 (_ BitVec 1))
         (B2 (_ BitVec 1))
         (C2 (_ BitVec 32))
         (D2 (_ BitVec 1))
         (E2 (_ BitVec 1))
         (F2 (_ BitVec 2))
         (G2 (_ BitVec 1))
         (H2 (_ BitVec 1))
         (I2 (_ BitVec 1))
         (J2 (_ BitVec 1))
         (K2 (_ BitVec 5))
         (L2 (_ BitVec 1))
         (M2 (_ BitVec 1))
         (N2 (_ BitVec 1))
         (O2 (_ BitVec 1))
         (P2 (_ BitVec 32))
         (Q2 (_ BitVec 4))
         (R2 (_ BitVec 7))
         (S2 (_ BitVec 1))
         (T2 (_ BitVec 1))
         (U2 (_ BitVec 1))
         (V2 (_ BitVec 1))
         (W2 (_ BitVec 1))
         (X2 (_ BitVec 1))
         (Y2 (_ BitVec 5))
         (Z2 (_ BitVec 1))
         (A3 (_ BitVec 1))
         (B3 (_ BitVec 1))
         (C3 (_ BitVec 2))
         (D3 (_ BitVec 1))
         (E3 (_ BitVec 5))
         (F3 (_ BitVec 23))
         (G3 (_ BitVec 1))
         (H3 (_ BitVec 1))
         (I3 (_ BitVec 5))
         (J3 (_ BitVec 6))
         (K3 (_ BitVec 1))
         (L3 (_ BitVec 1))
         (M3 (_ BitVec 1))
         (N3 (_ BitVec 1))
         (O3 (_ BitVec 7))
         (P3 (_ BitVec 1))
         (Q3 (_ BitVec 1))
         (R3 (_ BitVec 1))
         (S3 (_ BitVec 1))
         (T3 (_ BitVec 32))
         (U3 (_ BitVec 1))
         (V3 (_ BitVec 1))
         (W3 (_ BitVec 1))
         (X3 (_ BitVec 1))
         (Y3 (_ BitVec 1))
         (Z3 (_ BitVec 1))
         (A4 (_ BitVec 1))
         (B4 (_ BitVec 4))
         (C4 (_ BitVec 32))
         (D4 (_ BitVec 1))
         (E4 (_ BitVec 1))
         (F4 (_ BitVec 1))
         (G4 (_ BitVec 1))
         (H4 (_ BitVec 1))
         (I4 (_ BitVec 32))
         (J4 (_ BitVec 1))
         (K4 (_ BitVec 32))
         (L4 (_ BitVec 4))
         (M4 (_ BitVec 1))
         (N4 (_ BitVec 1))
         (O4 (_ BitVec 1))
         (P4 (_ BitVec 1))
         (Q4 (_ BitVec 1))
         (R4 (_ BitVec 6))
         (S4 (_ BitVec 1))
         (T4 (_ BitVec 32))
         (U4 (_ BitVec 1))
         (V4 (_ BitVec 1))
         (W4 (_ BitVec 4))
         (X4 (_ BitVec 1))
         (Y4 (_ BitVec 1))
         (Z4 (_ BitVec 1))
         (A5 (_ BitVec 1))
         (B5 (_ BitVec 1))
         (C5 (_ BitVec 4))
         (D5 (_ BitVec 32))
         (E5 (_ BitVec 1))
         (F5 (_ BitVec 1))
         (G5 (_ BitVec 5))
         (H5 (_ BitVec 1))
         (I5 (_ BitVec 1))
         (J5 (_ BitVec 1))
         (K5 (_ BitVec 1))
         (L5 (_ BitVec 32))
         (M5 (_ BitVec 1))
         (N5 (_ BitVec 32))
         (O5 (_ BitVec 1))
         (P5 (_ BitVec 1))
         (Q5 (_ BitVec 1))
         (R5 (_ BitVec 1))
         (S5 (_ BitVec 1))
         (T5 (_ BitVec 1))
         (U5 (_ BitVec 1))
         (V5 (_ BitVec 7))
         (W5 (_ BitVec 1))
         (X5 (_ BitVec 32))
         (Y5 (_ BitVec 32))
         (Z5 (_ BitVec 1))
         (A6 (_ BitVec 1))
         (B6 (_ BitVec 7))
         (C6 (_ BitVec 1))
         (D6 (Array (_ BitVec 5) (_ BitVec 32)))
         (E6 (_ BitVec 1))
         (F6 (_ BitVec 32))
         (G6 (_ BitVec 32))
         (H6 (_ BitVec 1))
         (I6 (_ BitVec 1))
         (J6 (_ BitVec 1))
         (K6 (_ BitVec 1))
         (L6 (_ BitVec 1))
         (M6 (_ BitVec 1))
         (N6 (_ BitVec 1))
         (O6 (_ BitVec 1))
         (P6 (_ BitVec 32))
         (Q6 (_ BitVec 1))
         (R6 (_ BitVec 1))
         (S6 (_ BitVec 1))
         (T6 (_ BitVec 1))
         (U6 (_ BitVec 8))
         (V6 (_ BitVec 6))
         (W6 (_ BitVec 32))
         (X6 (_ BitVec 30))
         (Y6 (_ BitVec 32))
         (Z6 (_ BitVec 1))
         (A7 (_ BitVec 1))
         (B7 (_ BitVec 1))
         (C7 (_ BitVec 4))
         (D7 (_ BitVec 1))
         (E7 (_ BitVec 1))
         (F7 (_ BitVec 1))
         (G7 (_ BitVec 1))
         (H7 (_ BitVec 1))
         (I7 (_ BitVec 1))
         (J7 (_ BitVec 1))
         (K7 (_ BitVec 1))
         (L7 (_ BitVec 6))
         (M7 (Array (_ BitVec 4) (_ BitVec 8)))
         (N7 (_ BitVec 1))
         (O7 (_ BitVec 4))
         (P7 (_ BitVec 1))
         (Q7 (_ BitVec 1))
         (R7 (_ BitVec 4))
         (S7 (_ BitVec 1))
         (T7 (_ BitVec 1))
         (U7 (_ BitVec 8))
         (V7 (_ BitVec 1))
         (W7 (_ BitVec 2))
         (X7 (_ BitVec 2))
         (Y7 (_ BitVec 30))
         (Z7 (_ BitVec 1))
         (A8 (_ BitVec 8))
         (B8 (_ BitVec 8))
         (C8 (_ BitVec 2))
         (D8 (_ BitVec 1))
         (E8 (_ BitVec 1))
         (F8 (_ BitVec 3))
         (G8 (_ BitVec 7))
         (H8 (_ BitVec 1))
         (I8 (_ BitVec 1))
         (J8 (_ BitVec 1))
         (K8 (_ BitVec 1))
         (L8 (_ BitVec 1))
         (M8 (_ BitVec 1))
         (N8 (_ BitVec 32))
         (O8 (_ BitVec 32))
         (P8 (_ BitVec 1))
         (Q8 (_ BitVec 1))
         (R8 (_ BitVec 5)))
  (! (let ((a!1 (and (or (= Q6 #b0) (not (= B7 #b1)))
                     (= L3 #b0)
                     (= R3 #b0)
                     (or (= P1 #b0) (not (= M1 #b1)))
                     (or (= Z4 #b0) (= L8 #b1))
                     (or (= M5 #b0)
                         (not (= M1 #b1))
                         (= ((_ extract 0 0) V6) #b1))
                     (or (not ((_ bit2bool 0) J7)) (= U5 #b0))
                     (or ((_ bit2bool 0) Z7)
                         (not (= S2 #b0))
                         (not ((_ bit2bool 0) A4)))
                     (or (= R4 #b000000) (not (= B7 #b1)))
                     (or (not (= P3 #b1)) (not (= B7 #b1)))
                     (or (not ((_ bit2bool 0) M3)) (= V3 #b0))
                     (or (= C3 #b00)
                         (not (= M1 #b1))
                         (= ((_ extract 0 0) V6) #b1))
                     (or (not ((_ bit2bool 0) V7)) (= N3 #b0))
                     (or ((_ bit2bool 0) S4)
                         (= Z7 #b1)
                         (not ((_ bit2bool 0) Y)))
                     (or (not (= I7 #b1)) (not (= B7 #b1)))
                     (or (= V6 #b000000) (not (= F5 #b1)) (not (= X2 #b1)))
                     (or (not (= U5 #b1)) (= S3 #b0))
                     (or (not ((_ bit2bool 0) S4)) (not ((_ bit2bool 0) V7)))
                     (or (not (= Z6 #b1))
                         (not ((_ bit2bool 0) S1))
                         (= E3 #b01111)
                         (not (= A5 #b1))
                         (not (= I3 #b01111)))
                     (or (not ((_ bit2bool 0) I5)) (not (= W2 #b1)))
                     (or (= C3 #b11) (= C3 #b00) (not ((_ bit2bool 0) V7)))
                     (or (not (= Z6 #b1))
                         (not ((_ bit2bool 0) F5))
                         (not (= H1 #b1)))
                     (or (= A8 B8) (not (= B7 #b1)))
                     (or (not (= B7 #b1)) (not (= N3 #b0)))
                     (or ((_ bit2bool 0) X2)
                         ((_ bit2bool 0) R1)
                         (not ((_ bit2bool 0) T2)))
                     (or (not (= L2 #b1)) (= N3 #b0))
                     (or (not (= M1 #b1)) (not (= X2 #b1)))
                     (or (not (= D3 #b1)) (not ((_ bit2bool 0) M3)))
                     (or ((_ bit2bool 0) R1) (= P1 #b0))
                     (or (not (= Y3 #b1)) (not (= S2 #b0)) (= Y #b1))
                     (or (= T2 #b0) (not (= M1 #b1)))
                     (or (not (= C6 #b1)) (= Z6 #b0))
                     (or (= W2 #b0) (not (= B7 #b1))))))
       (= (INV!slice!1 A
                       B
                       C
                       D
                       E
                       F
                       G
                       H
                       I
                       J
                       K
                       L
                       M
                       N
                       O
                       P
                       Q
                       R
                       S
                       T
                       U
                       V
                       W
                       X
                       Y
                       Z
                       A1
                       B1
                       C1
                       D1
                       E1
                       F1
                       G1
                       H1
                       I1
                       J1
                       K1
                       L1
                       M1
                       N1
                       O1
                       P1
                       Q1
                       R1
                       S1
                       T1
                       U1
                       V1
                       W1
                       X1
                       Y1
                       Z1
                       A2
                       B2
                       C2
                       D2
                       E2
                       F2
                       G2
                       H2
                       I2
                       J2
                       K2
                       L2
                       M2
                       N2
                       O2
                       P2
                       Q2
                       R2
                       S2
                       T2
                       U2
                       V2
                       W2
                       X2
                       Y2
                       Z2
                       A3
                       B3
                       C3
                       D3
                       E3
                       F3
                       G3
                       H3
                       I3
                       J3
                       K3
                       L3
                       M3
                       N3
                       O3
                       P3
                       Q3
                       R3
                       S3
                       T3
                       U3
                       V3
                       W3
                       X3
                       Y3
                       Z3
                       A4
                       B4
                       C4
                       D4
                       E4
                       F4
                       G4
                       H4
                       I4
                       J4
                       K4
                       L4
                       M4
                       N4
                       O4
                       P4
                       Q4
                       R4
                       S4
                       T4
                       U4
                       V4
                       W4
                       X4
                       Y4
                       Z4
                       A5
                       B5
                       C5
                       D5
                       E5
                       F5
                       G5
                       H5
                       I5
                       J5
                       K5
                       L5
                       M5
                       N5
                       O5
                       P5
                       Q5
                       R5
                       S5
                       T5
                       U5
                       V5
                       W5
                       X5
                       Y5
                       Z5
                       A6
                       B6
                       C6
                       D6
                       E6
                       F6
                       G6
                       H6
                       I6
                       J6
                       K6
                       L6
                       M6
                       N6
                       O6
                       P6
                       Q6
                       R6
                       S6
                       T6
                       U6
                       V6
                       W6
                       X6
                       Y6
                       Z6
                       A7
                       B7
                       C7
                       D7
                       E7
                       F7
                       G7
                       H7
                       I7
                       J7
                       K7
                       L7
                       M7
                       N7
                       O7
                       P7
                       Q7
                       R7
                       S7
                       T7
                       U7
                       V7
                       W7
                       X7
                       Y7
                       Z7
                       A8
                       B8
                       C8
                       D8
                       E8
                       F8
                       G8
                       H8
                       I8
                       J8
                       K8
                       L8
                       M8
                       N8
                       O8
                       P8
                       Q8
                       R8)
          a!1))
     :weight 0))
